226 149959
1 73 74 75 76 77 78 79 80 81 82 83 84 85 86 136 178 177 176 175 174 173 172 171 170 169 168 151 152 153 154 41 40 39 38 37 36 35 34 30 29 28 23 65 67 16 15 14 10 9 11 12 13 71 68 17 18 19 20 21 22 24 25 26 27 31 49 50 51 52 53 54 55 56 64 111 112 113 114 115 116 117 108 109 118 110 134 135 133 128 126 119 120 121 127 129 122 123 125 226 225 224 223 222 221 220 219 218 217 216 215 214 213 212 211 132 124 130 131 190 189 188 186 185 184 183 181 180 179 182 187 191 192 193 194 195 196 197 198 199 200 201 202 203 204 205 206 207 208 209 210 63 62 58 57 59 60 61 137 138 139 146 145 147 140 141 148 149 142 143 150 155 156 157 158 159 160 161 162 163 164 165 166 167 144 99 98 43 42 44 45 32 33 48 46 47 87 95 96 97 89 88 90 91 101 102 94 93 92 100 107 106 104 105 103 66 70 69 72 8 7 6 5 4 3 2 
